
Gurobi 10.0.1 (win64) logging started Sat Sep  9 01:38:51 2023

Set parameter LogFile to value "results-heuristic-start//log/BA_12_deadline.log"
Gurobi Optimizer version 10.0.1 build v10.0.1rc0 (win64)

CPU model: AMD Ryzen 7 3700X 8-Core Processor, instruction set [SSE2|AVX|AVX2]
Thread count: 8 physical cores, 16 logical processors, using up to 16 threads

Optimize a model with 492 rows, 331 columns and 1945 nonzeros
Model fingerprint: 0x328edce6
Model has 1 quadratic constraint
Variable types: 45 continuous, 286 integer (285 binary)
Coefficient statistics:
  Matrix range     [1e+00, 1e+06]
  QMatrix range    [1e+00, 1e+00]
  QLMatrix range   [1e+00, 1e+01]
  Objective range  [1e+00, 1e+00]
  Bounds range     [1e+00, 1e+00]
  RHS range        [1e+00, 3e+06]

Warning: Completing partial solution with 271 unfixed non-continuous variables out of 286
User MIP start produced solution with objective 886 (0.00s)
Loaded user MIP start with objective 886

Presolve removed 68 rows and 120 columns
Presolve time: 0.00s
Presolved: 440 rows, 226 columns, 1923 nonzeros
Variable types: 60 continuous, 166 integer (165 binary)

Root relaxation: objective 0.000000e+00, 49 iterations, 0.00 seconds (0.00 work units)

    Nodes    |    Current Node    |     Objective Bounds      |     Work
 Expl Unexpl |  Obj  Depth IntInf | Incumbent    BestBd   Gap | It/Node Time

     0     0    0.00000    0    4  886.00000    0.00000   100%     -    0s
H    0     0                      84.0000000    0.00000   100%     -    0s
H    0     0                      83.0000000    0.00000   100%     -    0s
H    0     0                      81.0000000    0.00000   100%     -    0s
H    0     0                      71.0000000    0.00000   100%     -    0s
     0     0    0.00000    0   10   71.00000    0.00000   100%     -    0s
     0     0    0.00000    0   11   71.00000    0.00000   100%     -    0s
     0     0    0.00000    0   11   71.00000    0.00000   100%     -    0s
H    0     0                      70.0000000    0.00000   100%     -    0s
H    0     0                      62.0000000    0.00000   100%     -    0s
H    0     0                      59.0000000    0.00000   100%     -    0s
     0     0    0.00000    0   17   59.00000    0.00000   100%     -    0s
H    0     0                      47.0000000    0.00000   100%     -    0s
H    0     0                      45.0000000    0.00000   100%     -    0s
     0     0    0.00000    0    3   45.00000    0.00000   100%     -    0s
     0     0    0.00000    0    9   45.00000    0.00000   100%     -    0s
H    0     0                      42.0000000    0.00000   100%     -    0s
     0     0    0.00000    0    5   42.00000    0.00000   100%     -    0s
     0     0    0.00000    0    7   42.00000    0.00000   100%     -    0s
H    0     0                      41.0000000    0.00000   100%     -    0s
     0     0    0.00000    0    6   41.00000    0.00000   100%     -    0s
H    0     0                      40.0000000    0.00000   100%     -    0s
     0     0    0.00000    0   12   40.00000    0.00000   100%     -    0s
     0     0    0.66583    0    8   40.00000    0.66583  98.3%     -    0s
     0     0    1.00000    0    7   40.00000    1.00000  97.5%     -    0s
H    0     0                      38.0000000    1.00000  97.4%     -    0s
     0     0    1.30119    0   20   38.00000    1.30119  96.6%     -    0s
     0     0    1.55298    0   18   38.00000    1.55298  95.9%     -    0s
     0     0    1.55298    0   19   38.00000    1.55298  95.9%     -    0s
     0     0    1.75894    0   17   38.00000    1.75894  95.4%     -    0s
     0     0    1.75894    0   22   38.00000    1.75894  95.4%     -    0s
     0     0    1.92561    0   26   38.00000    1.92561  94.9%     -    0s
     0     0    2.05029    0   25   38.00000    2.05029  94.6%     -    0s
     0     0    2.05029    0   25   38.00000    2.05029  94.6%     -    0s
     0     0    2.68452    0   24   38.00000    2.68452  92.9%     -    0s
     0     0    3.13711    0   28   38.00000    3.13711  91.7%     -    0s
     0     0    3.13711    0   28   38.00000    3.13711  91.7%     -    0s
     0     0    3.13793    0   27   38.00000    3.13793  91.7%     -    0s
     0     0    3.13793    0   28   38.00000    3.13793  91.7%     -    0s
     0     0    3.13793    0   25   38.00000    3.13793  91.7%     -    0s
     0     0    3.13793    0   17   38.00000    3.13793  91.7%     -    0s
H    0     1                      37.0000000    3.13793  91.5%     -    0s
     0     1    3.13793    0   15   37.00000    3.13793  91.5%     -    0s
H   32    29                      33.0000000    4.00000  87.9%  44.7    0s
H   80    68                      32.0000000    4.00000  87.5%  24.6    0s
H  119    92                      30.0000000    4.00000  86.7%  21.3    0s
H  916   383                      27.0000000    4.00000  85.2%   8.2    0s
H 1941   557                      24.0000000    5.00000  79.2%   6.1    0s
H 7388   999                      22.0000000    5.00000  77.3%   3.7    0s
H 8319  1307                      21.0000000    5.00000  76.2%   1.9    1s
H10594  1484                      20.0000000    5.00000  75.0%   3.4    1s
 43114  6186    6.00000   61   13   20.00000    5.00000  75.0%   9.9    5s

Cutting planes:
  Learned: 4
  Cover: 1
  Implied bound: 7
  MIR: 9
  Flow cover: 14

Explored 67590 nodes (848356 simplex iterations) in 5.97 seconds (4.14 work units)
Thread count was 16 (of 16 available processors)

Solution count 10: 20 21 22 ... 38

Optimal solution found (tolerance 1.00e-04)
Best objective 2.000000000000e+01, best bound 2.000000000000e+01, gap 0.0000%
Warning: constraint name "precedence between 0,2 to 0,0 if x_[j,l,h,z,i]=1" has a space
Warning: constraint name "precedence between 0,2 to 0,0 if x_[j,l,h,z,i]=1" has a space
Warning: default constraint names used to write mps file
